(set-logic HORN)
(set-info :source |
    Benchmark: C_VC
    Output by Princess (http://www.philipp.ruemmer.org/princess.shtml)
|)
(set-info :status unsat)
(declare-fun inv_main117 (Int Int Int Int Int Int Int Int Int Int Int Int Int Int Int Int Int Int) Bool)
(declare-fun inv_main125 (Int Int Int Int Int Int Int Int Int Int Int Int Int Int Int Int Int Int) Bool)
(declare-fun inv_main132 (Int Int Int Int Int Int Int Int Int Int Int Int Int Int Int Int Int Int) Bool)
(declare-fun inv_main6 (Int Int Int Int) Bool)
(assert (forall ((var0 Int) (var1 Int) (var2 Int)) (inv_main6 var2 0 var1 var0)))
(assert (forall ((var0 Int) (var1 Int) (var2 Int) (var3 Int) (var4 Int) (var5 Int) (var6 Int) (var7 Int) (var8 Int) (var9 Int) (var10 Int) (var11 Int) (var12 Int) (var13 Int) (var14 Int) (var15 Int) (var16 Int)) (or (not (and (inv_main6 var16 var15 var14 var13) (and (and (and (and (and (and (and (and (and (and (and (and (and (and (and (= var12 (+ var11 (* (- 1) var10))) (and (<= 0 (+ var11 (* (- 1) var10))) (and (= var9 (+ var8 (* (- 1) var11))) (<= 0 (+ var8 (* (- 1) var11)))))) (and (not (= var7 var6)) (and (not (= var5 var6)) (and (not (= var5 var7)) (and (not (= var4 var6)) (and (not (= var4 var7)) (and (not (= var4 var5)) (and (not (= var12 var6)) (and (not (= var12 var7)) (and (not (= var12 var5)) (and (not (= var12 var4)) (and (not (= var9 var6)) (and (not (= var9 var7)) (and (not (= var9 var5)) (and (not (= var9 var4)) (and (not (= var9 var12)) (and (not (= var3 var2)) (and (not (= var1 var2)) (and (not (= var1 var3)) (and (not (= var0 var2)) (and (not (= var0 var3)) (and (not (= var0 var1)) (and (not (= var10 var2)) (and (not (= var10 var3)) (and (not (= var10 var1)) (and (not (= var10 var0)) (and (not (= var11 var2)) (and (not (= var11 var3)) (and (not (= var11 var1)) (and (not (= var11 var0)) (and (not (= var11 var10)) (and (not (= var8 var2)) (and (not (= var8 var3)) (and (not (= var8 var1)) (and (not (= var8 var0)) (and (not (= var8 var10)) (not (= var8 var11)))))))))))))))))))))))))))))))))))))) (and (<= 0 (+ 6 (* (- 1) var6))) (<= 0 (+ var6 (- 1))))) (and (<= 0 (+ 6 (* (- 1) var7))) (<= 0 (+ var7 (- 1))))) (and (<= 0 (+ 6 (* (- 1) var5))) (<= 0 (+ var5 (- 1))))) (and (<= 0 (+ 6 (* (- 1) var4))) (<= 0 (+ var4 (- 1))))) (and (<= 0 (+ 6 (* (- 1) var12))) (<= 0 (+ var12 (- 1))))) (and (<= 0 (+ 6 (* (- 1) var9))) (<= 0 (+ var9 (- 1))))) (and (<= 0 (+ 6 (* (- 1) var2))) (<= 0 var2))) (and (<= 0 (+ 6 (* (- 1) var3))) (<= 0 var3))) (and (<= 0 (+ 6 (* (- 1) var1))) (<= 0 var1))) (and (<= 0 (+ 6 (* (- 1) var0))) (<= 0 var0))) (and (<= 0 (+ 6 (* (- 1) var10))) (<= 0 var10))) (and (<= 0 (+ 6 (* (- 1) var11))) (<= 0 var11))) (and (<= 0 (+ 6 (* (- 1) var8))) (<= 0 var8))))) (inv_main117 var16 var15 var14 var8 var11 var10 var0 var1 var3 var2 var9 var12 var4 var5 var7 var6 1 (+ var10 (* (- 1) var0))))))
(assert (forall ((var0 Int) (var1 Int) (var2 Int) (var3 Int) (var4 Int) (var5 Int) (var6 Int) (var7 Int) (var8 Int) (var9 Int) (var10 Int) (var11 Int) (var12 Int) (var13 Int) (var14 Int) (var15 Int) (var16 Int)) (or (not (and (inv_main6 var16 var15 var14 var13) (and (and (and (and (and (and (and (and (and (and (and (and (and (and (and (= var12 (* (- 1) (+ var11 (* (- 1) var10)))) (and (not (<= 0 (+ var11 (* (- 1) var10)))) (and (= var9 (+ var8 (* (- 1) var11))) (<= 0 (+ var8 (* (- 1) var11)))))) (and (not (= var7 var6)) (and (not (= var5 var6)) (and (not (= var5 var7)) (and (not (= var4 var6)) (and (not (= var4 var7)) (and (not (= var4 var5)) (and (not (= var12 var6)) (and (not (= var12 var7)) (and (not (= var12 var5)) (and (not (= var12 var4)) (and (not (= var9 var6)) (and (not (= var9 var7)) (and (not (= var9 var5)) (and (not (= var9 var4)) (and (not (= var9 var12)) (and (not (= var3 var2)) (and (not (= var1 var2)) (and (not (= var1 var3)) (and (not (= var0 var2)) (and (not (= var0 var3)) (and (not (= var0 var1)) (and (not (= var10 var2)) (and (not (= var10 var3)) (and (not (= var10 var1)) (and (not (= var10 var0)) (and (not (= var11 var2)) (and (not (= var11 var3)) (and (not (= var11 var1)) (and (not (= var11 var0)) (and (not (= var11 var10)) (and (not (= var8 var2)) (and (not (= var8 var3)) (and (not (= var8 var1)) (and (not (= var8 var0)) (and (not (= var8 var10)) (not (= var8 var11)))))))))))))))))))))))))))))))))))))) (and (<= 0 (+ 6 (* (- 1) var6))) (<= 0 (+ var6 (- 1))))) (and (<= 0 (+ 6 (* (- 1) var7))) (<= 0 (+ var7 (- 1))))) (and (<= 0 (+ 6 (* (- 1) var5))) (<= 0 (+ var5 (- 1))))) (and (<= 0 (+ 6 (* (- 1) var4))) (<= 0 (+ var4 (- 1))))) (and (<= 0 (+ 6 (* (- 1) var12))) (<= 0 (+ var12 (- 1))))) (and (<= 0 (+ 6 (* (- 1) var9))) (<= 0 (+ var9 (- 1))))) (and (<= 0 (+ 6 (* (- 1) var2))) (<= 0 var2))) (and (<= 0 (+ 6 (* (- 1) var3))) (<= 0 var3))) (and (<= 0 (+ 6 (* (- 1) var1))) (<= 0 var1))) (and (<= 0 (+ 6 (* (- 1) var0))) (<= 0 var0))) (and (<= 0 (+ 6 (* (- 1) var10))) (<= 0 var10))) (and (<= 0 (+ 6 (* (- 1) var11))) (<= 0 var11))) (and (<= 0 (+ 6 (* (- 1) var8))) (<= 0 var8))))) (inv_main117 var16 var15 var14 var8 var11 var10 var0 var1 var3 var2 var9 var12 var4 var5 var7 var6 1 (+ var10 (* (- 1) var0))))))
(assert (forall ((var0 Int) (var1 Int) (var2 Int) (var3 Int) (var4 Int) (var5 Int) (var6 Int) (var7 Int) (var8 Int) (var9 Int) (var10 Int) (var11 Int) (var12 Int) (var13 Int) (var14 Int) (var15 Int) (var16 Int)) (or (not (and (inv_main6 var16 var15 var14 var13) (and (and (and (and (and (and (and (and (and (and (and (and (and (and (and (= var12 (+ var11 (* (- 1) var10))) (and (<= 0 (+ var11 (* (- 1) var10))) (and (= var9 (* (- 1) (+ var8 (* (- 1) var11)))) (not (<= 0 (+ var8 (* (- 1) var11))))))) (and (not (= var7 var6)) (and (not (= var5 var6)) (and (not (= var5 var7)) (and (not (= var4 var6)) (and (not (= var4 var7)) (and (not (= var4 var5)) (and (not (= var12 var6)) (and (not (= var12 var7)) (and (not (= var12 var5)) (and (not (= var12 var4)) (and (not (= var9 var6)) (and (not (= var9 var7)) (and (not (= var9 var5)) (and (not (= var9 var4)) (and (not (= var9 var12)) (and (not (= var3 var2)) (and (not (= var1 var2)) (and (not (= var1 var3)) (and (not (= var0 var2)) (and (not (= var0 var3)) (and (not (= var0 var1)) (and (not (= var10 var2)) (and (not (= var10 var3)) (and (not (= var10 var1)) (and (not (= var10 var0)) (and (not (= var11 var2)) (and (not (= var11 var3)) (and (not (= var11 var1)) (and (not (= var11 var0)) (and (not (= var11 var10)) (and (not (= var8 var2)) (and (not (= var8 var3)) (and (not (= var8 var1)) (and (not (= var8 var0)) (and (not (= var8 var10)) (not (= var8 var11)))))))))))))))))))))))))))))))))))))) (and (<= 0 (+ 6 (* (- 1) var6))) (<= 0 (+ var6 (- 1))))) (and (<= 0 (+ 6 (* (- 1) var7))) (<= 0 (+ var7 (- 1))))) (and (<= 0 (+ 6 (* (- 1) var5))) (<= 0 (+ var5 (- 1))))) (and (<= 0 (+ 6 (* (- 1) var4))) (<= 0 (+ var4 (- 1))))) (and (<= 0 (+ 6 (* (- 1) var12))) (<= 0 (+ var12 (- 1))))) (and (<= 0 (+ 6 (* (- 1) var9))) (<= 0 (+ var9 (- 1))))) (and (<= 0 (+ 6 (* (- 1) var2))) (<= 0 var2))) (and (<= 0 (+ 6 (* (- 1) var3))) (<= 0 var3))) (and (<= 0 (+ 6 (* (- 1) var1))) (<= 0 var1))) (and (<= 0 (+ 6 (* (- 1) var0))) (<= 0 var0))) (and (<= 0 (+ 6 (* (- 1) var10))) (<= 0 var10))) (and (<= 0 (+ 6 (* (- 1) var11))) (<= 0 var11))) (and (<= 0 (+ 6 (* (- 1) var8))) (<= 0 var8))))) (inv_main117 var16 var15 var14 var8 var11 var10 var0 var1 var3 var2 var9 var12 var4 var5 var7 var6 1 (+ var10 (* (- 1) var0))))))
(assert (forall ((var0 Int) (var1 Int) (var2 Int) (var3 Int) (var4 Int) (var5 Int) (var6 Int) (var7 Int) (var8 Int) (var9 Int) (var10 Int) (var11 Int) (var12 Int) (var13 Int) (var14 Int) (var15 Int) (var16 Int)) (or (not (and (inv_main6 var16 var15 var14 var13) (and (and (and (and (and (and (and (and (and (and (and (and (and (and (and (= var12 (* (- 1) (+ var11 (* (- 1) var10)))) (and (not (<= 0 (+ var11 (* (- 1) var10)))) (and (= var9 (* (- 1) (+ var8 (* (- 1) var11)))) (not (<= 0 (+ var8 (* (- 1) var11))))))) (and (not (= var7 var6)) (and (not (= var5 var6)) (and (not (= var5 var7)) (and (not (= var4 var6)) (and (not (= var4 var7)) (and (not (= var4 var5)) (and (not (= var12 var6)) (and (not (= var12 var7)) (and (not (= var12 var5)) (and (not (= var12 var4)) (and (not (= var9 var6)) (and (not (= var9 var7)) (and (not (= var9 var5)) (and (not (= var9 var4)) (and (not (= var9 var12)) (and (not (= var3 var2)) (and (not (= var1 var2)) (and (not (= var1 var3)) (and (not (= var0 var2)) (and (not (= var0 var3)) (and (not (= var0 var1)) (and (not (= var10 var2)) (and (not (= var10 var3)) (and (not (= var10 var1)) (and (not (= var10 var0)) (and (not (= var11 var2)) (and (not (= var11 var3)) (and (not (= var11 var1)) (and (not (= var11 var0)) (and (not (= var11 var10)) (and (not (= var8 var2)) (and (not (= var8 var3)) (and (not (= var8 var1)) (and (not (= var8 var0)) (and (not (= var8 var10)) (not (= var8 var11)))))))))))))))))))))))))))))))))))))) (and (<= 0 (+ 6 (* (- 1) var6))) (<= 0 (+ var6 (- 1))))) (and (<= 0 (+ 6 (* (- 1) var7))) (<= 0 (+ var7 (- 1))))) (and (<= 0 (+ 6 (* (- 1) var5))) (<= 0 (+ var5 (- 1))))) (and (<= 0 (+ 6 (* (- 1) var4))) (<= 0 (+ var4 (- 1))))) (and (<= 0 (+ 6 (* (- 1) var12))) (<= 0 (+ var12 (- 1))))) (and (<= 0 (+ 6 (* (- 1) var9))) (<= 0 (+ var9 (- 1))))) (and (<= 0 (+ 6 (* (- 1) var2))) (<= 0 var2))) (and (<= 0 (+ 6 (* (- 1) var3))) (<= 0 var3))) (and (<= 0 (+ 6 (* (- 1) var1))) (<= 0 var1))) (and (<= 0 (+ 6 (* (- 1) var0))) (<= 0 var0))) (and (<= 0 (+ 6 (* (- 1) var10))) (<= 0 var10))) (and (<= 0 (+ 6 (* (- 1) var11))) (<= 0 var11))) (and (<= 0 (+ 6 (* (- 1) var8))) (<= 0 var8))))) (inv_main117 var16 var15 var14 var8 var11 var10 var0 var1 var3 var2 var9 var12 var4 var5 var7 var6 1 (+ var10 (* (- 1) var0))))))
(assert (forall ((var0 Int) (var1 Int) (var2 Int) (var3 Int) (var4 Int) (var5 Int) (var6 Int) (var7 Int) (var8 Int) (var9 Int) (var10 Int) (var11 Int) (var12 Int) (var13 Int) (var14 Int) (var15 Int) (var16 Int) (var17 Int)) (or (not (and (inv_main125 var17 var16 var15 var14 var13 var12 var11 var10 var9 var8 var7 var6 var5 var4 var3 var2 var1 var0) (and (= var2 (+ var9 (* (- 1) var8))) (and (<= 0 (+ var9 (* (- 1) var8))) (and (= var3 var0) (<= 0 var0)))))) (inv_main132 var17 var16 var15 var14 var13 var12 var11 var10 var9 var8 var7 var6 var5 var4 var3 var2 var1 (+ var9 (* (- 1) var8))))))
(assert (forall ((var0 Int) (var1 Int) (var2 Int) (var3 Int) (var4 Int) (var5 Int) (var6 Int) (var7 Int) (var8 Int) (var9 Int) (var10 Int) (var11 Int) (var12 Int) (var13 Int) (var14 Int) (var15 Int) (var16 Int) (var17 Int)) (or (not (and (inv_main125 var17 var16 var15 var14 var13 var12 var11 var10 var9 var8 var7 var6 var5 var4 var3 var2 var1 var0) (and (= var2 (* (- 1) (+ var9 (* (- 1) var8)))) (and (not (<= 0 (+ var9 (* (- 1) var8)))) (and (= var3 var0) (<= 0 var0)))))) (inv_main132 var17 var16 var15 var14 var13 var12 var11 var10 var9 var8 var7 var6 var5 var4 var3 var2 var1 (* (- 1) (+ var9 (* (- 1) var8)))))))
(assert (forall ((var0 Int) (var1 Int) (var2 Int) (var3 Int) (var4 Int) (var5 Int) (var6 Int) (var7 Int) (var8 Int) (var9 Int) (var10 Int) (var11 Int) (var12 Int) (var13 Int) (var14 Int) (var15 Int) (var16 Int) (var17 Int)) (or (not (and (inv_main125 var17 var16 var15 var14 var13 var12 var11 var10 var9 var8 var7 var6 var5 var4 var3 var2 var1 var0) (and (= var2 (+ var9 (* (- 1) var8))) (and (<= 0 (+ var9 (* (- 1) var8))) (and (= var3 (* (- 1) var0)) (not (<= 0 var0))))))) (inv_main132 var17 var16 var15 var14 var13 var12 var11 var10 var9 var8 var7 var6 var5 var4 var3 var2 var1 (+ var9 (* (- 1) var8))))))
(assert (forall ((var0 Int) (var1 Int) (var2 Int) (var3 Int) (var4 Int) (var5 Int) (var6 Int) (var7 Int) (var8 Int) (var9 Int) (var10 Int) (var11 Int) (var12 Int) (var13 Int) (var14 Int) (var15 Int) (var16 Int) (var17 Int)) (or (not (and (inv_main125 var17 var16 var15 var14 var13 var12 var11 var10 var9 var8 var7 var6 var5 var4 var3 var2 var1 var0) (and (= var2 (* (- 1) (+ var9 (* (- 1) var8)))) (and (not (<= 0 (+ var9 (* (- 1) var8)))) (and (= var3 (* (- 1) var0)) (not (<= 0 var0))))))) (inv_main132 var17 var16 var15 var14 var13 var12 var11 var10 var9 var8 var7 var6 var5 var4 var3 var2 var1 (* (- 1) (+ var9 (* (- 1) var8)))))))
(assert (forall ((var0 Int) (var1 Int) (var2 Int) (var3 Int) (var4 Int) (var5 Int) (var6 Int) (var7 Int) (var8 Int) (var9 Int) (var10 Int) (var11 Int) (var12 Int) (var13 Int) (var14 Int) (var15 Int) (var16 Int) (var17 Int)) (or (not (and (inv_main117 var17 var16 var15 var14 var13 var12 var11 var10 var9 var8 var7 var6 var5 var4 var3 var2 var1 var0) (and (= var4 (+ var11 (* (- 1) var10))) (and (<= 0 (+ var11 (* (- 1) var10))) (and (= var5 var0) (<= 0 var0)))))) (inv_main125 var17 var16 var15 var14 var13 var12 var11 var10 var9 var8 var7 var6 var5 var4 var3 var2 var1 (+ var10 (* (- 1) var9))))))
(assert (forall ((var0 Int) (var1 Int) (var2 Int) (var3 Int) (var4 Int) (var5 Int) (var6 Int) (var7 Int) (var8 Int) (var9 Int) (var10 Int) (var11 Int) (var12 Int) (var13 Int) (var14 Int) (var15 Int) (var16 Int) (var17 Int)) (or (not (and (inv_main117 var17 var16 var15 var14 var13 var12 var11 var10 var9 var8 var7 var6 var5 var4 var3 var2 var1 var0) (and (= var4 (* (- 1) (+ var11 (* (- 1) var10)))) (and (not (<= 0 (+ var11 (* (- 1) var10)))) (and (= var5 var0) (<= 0 var0)))))) (inv_main125 var17 var16 var15 var14 var13 var12 var11 var10 var9 var8 var7 var6 var5 var4 var3 var2 var1 (+ var10 (* (- 1) var9))))))
(assert (forall ((var0 Int) (var1 Int) (var2 Int) (var3 Int) (var4 Int) (var5 Int) (var6 Int) (var7 Int) (var8 Int) (var9 Int) (var10 Int) (var11 Int) (var12 Int) (var13 Int) (var14 Int) (var15 Int) (var16 Int) (var17 Int)) (or (not (and (inv_main117 var17 var16 var15 var14 var13 var12 var11 var10 var9 var8 var7 var6 var5 var4 var3 var2 var1 var0) (and (= var4 (+ var11 (* (- 1) var10))) (and (<= 0 (+ var11 (* (- 1) var10))) (and (= var5 (* (- 1) var0)) (not (<= 0 var0))))))) (inv_main125 var17 var16 var15 var14 var13 var12 var11 var10 var9 var8 var7 var6 var5 var4 var3 var2 var1 (+ var10 (* (- 1) var9))))))
(assert (forall ((var0 Int) (var1 Int) (var2 Int) (var3 Int) (var4 Int) (var5 Int) (var6 Int) (var7 Int) (var8 Int) (var9 Int) (var10 Int) (var11 Int) (var12 Int) (var13 Int) (var14 Int) (var15 Int) (var16 Int) (var17 Int)) (or (not (and (inv_main117 var17 var16 var15 var14 var13 var12 var11 var10 var9 var8 var7 var6 var5 var4 var3 var2 var1 var0) (and (= var4 (* (- 1) (+ var11 (* (- 1) var10)))) (and (not (<= 0 (+ var11 (* (- 1) var10)))) (and (= var5 (* (- 1) var0)) (not (<= 0 var0))))))) (inv_main125 var17 var16 var15 var14 var13 var12 var11 var10 var9 var8 var7 var6 var5 var4 var3 var2 var1 (+ var10 (* (- 1) var9))))))
(assert (forall ((var0 Int) (var1 Int) (var2 Int) (var3 Int) (var4 Int) (var5 Int) (var6 Int) (var7 Int) (var8 Int) (var9 Int) (var10 Int) (var11 Int) (var12 Int) (var13 Int) (var14 Int) (var15 Int) (var16 Int) (var17 Int)) (not (inv_main132 var17 var16 var15 var14 var13 var12 var11 var10 var9 var8 var7 var6 var5 var4 var3 var2 var1 var0))))
(check-sat)
